This is Ipopt version trunk, running with linear solver mumps.

Number of nonzeros in equality constraint Jacobian...:    47029
Number of nonzeros in inequality constraint Jacobian.:      615
Number of nonzeros in Lagrangian Hessian.............:    23902

Total number of variables............................:     4033
                     variables with only lower bounds:        0
                variables with lower and upper bounds:     4033
                     variables with only upper bounds:        0
Total number of equality constraints.................:     3666
Total number of inequality constraints...............:      247
        inequality constraints with only lower bounds:        0
   inequality constraints with lower and upper bounds:      247
        inequality constraints with only upper bounds:        0

iter    objective    inf_pr   inf_du lg(mu)  ||d||  lg(rg) alpha_du alpha_pr  ls
   0 3.1650247e+000 2.12e-001 9.99e+000   0.0 0.00e+000    -  0.00e+000 0.00e+000   0
   1 3.3243987e+000 1.08e-002 6.20e+000  -5.9 1.45e-001    -  6.81e-001 9.00e-001h  1
   2 3.3487465e+000 6.13e-003 1.08e+001  -2.5 7.73e-002    -  5.21e-001 5.99e-001h  1
   3 3.3777584e+000 7.62e-003 4.08e+000  -2.8 1.32e-001   0.0 9.37e-001 8.89e-001h  1
   4 3.3257179e+000 1.24e-002 1.18e+002  -3.2 7.56e-002  -0.5 8.24e-001 4.63e-001h  1
   5 3.4187113e+000 1.67e-003 6.48e+001  -2.8 1.08e-001  -0.1 1.00e+000 8.22e-001H  1
   6 3.2947280e+000 1.18e-002 5.08e+001  -8.8 1.81e-001  -0.5 6.79e-001 5.34e-001h  1
   7 3.2286186e+000 7.29e-003 6.82e+001  -4.2 1.17e-001  -1.0 7.30e-001 4.94e-001h  1
   8 3.2009353e+000 2.58e-003 3.19e+001  -4.8 5.17e-002  -0.6 7.86e-001 6.56e-001h  1
   9 3.1820672e+000 1.81e-003 1.92e+001  -5.2 5.52e-002  -1.1 7.76e-001 5.63e-001h  1
iter    objective    inf_pr   inf_du lg(mu)  ||d||  lg(rg) alpha_du alpha_pr  ls
  10 3.1733883e+000 1.40e-003 7.60e+001  -4.5 5.15e-002  -1.5 1.00e+000 6.38e-001h  1
  11 3.1690936e+000 6.38e-004 4.44e+001  -4.7 2.64e-002  -2.0 1.00e+000 8.73e-001h  1
  12 3.1681770e+000 9.91e-005 2.51e-002  -5.0 3.53e-002  -2.5 1.00e+000 1.00e+000h  1
  13 3.1671449e+000 9.95e-005 2.97e+002  -5.5 1.39e-001    -  1.00e+000 4.54e-001h  1
  14 3.1661841e+000 8.32e-005 1.76e+002  -5.9 2.98e-002  -3.0 1.00e+000 6.16e-001h  1
  15 3.1657959e+000 4.96e-005 1.11e-002  -5.6 6.73e-002  -3.4 1.00e+000 1.00e+000h  1
  16 3.1653898e+000 4.30e-005 1.74e+001  -6.1 1.13e-001    -  1.00e+000 8.85e-001h  1
  17 3.1651185e+000 4.89e-005 4.85e+000  -6.8 1.42e-001    -  8.85e-001 9.67e-001h  1
  18 3.1650523e+000 1.38e-005 3.88e-002  -7.3 8.91e-003  -3.9 1.00e+000 9.97e-001h  1
  19 3.1650324e+000 7.29e-006 1.13e-002  -7.8 1.49e-002  -4.4 1.00e+000 9.97e-001h  1
iter    objective    inf_pr   inf_du lg(mu)  ||d||  lg(rg) alpha_du alpha_pr  ls
  20 3.1650271e+000 3.12e-005 4.16e-004  -8.2 4.94e-002  -4.9 1.00e+000 1.00e+000h  1
  21 3.1650251e+000 2.54e-006 1.77e-004  -8.7 2.31e-002  -4.4 1.00e+000 1.00e+000h  1
  22 3.1650243e+000 1.30e-005 6.72e-005  -9.1 1.51e-001  -4.9 1.00e+000 1.00e+000h  1
  23 3.1650236e+000 7.57e-006 2.81e-005  -9.6 1.75e-001  -4.5 1.00e+000 1.00e+000h  1
  24 3.1650213e+000 8.01e-005 2.16e-004 -10.2 2.32e-001  -4.1 1.00e+000 1.00e+000h  1
  25 3.1650208e+000 7.88e-005 6.79e-002  -9.4 3.89e-001  -3.6 1.00e+000 3.46e-002h  1
  26 3.1650208e+000 7.85e-005 1.48e-002 -10.5 2.38e-002  -4.1 1.00e+000 3.76e-003h  1
  27 3.1650187e+000 2.53e-006 1.49e-006 -10.6 2.35e-002  -4.6 1.00e+000 1.00e+000h  1
  28 3.1650187e+000 1.51e-007 8.09e-007 -10.4 1.70e-002  -5.1 1.00e+000 1.00e+000H  1
  29 3.1650188e+000 1.76e-005 3.57e-006  -9.9 2.90e-002  -5.6 1.00e+000 1.00e+000h  1
iter    objective    inf_pr   inf_du lg(mu)  ||d||  lg(rg) alpha_du alpha_pr  ls
  30 3.1650187e+000 1.02e-005 1.37e-002 -10.0 6.93e-002  -6.0 1.00e+000 5.62e-001h  1
  31 3.1650187e+000 2.33e-004 1.29e-002 -10.0 2.65e-001  -6.5 1.00e+000 6.13e-001f  1
  32 3.1650187e+000 4.40e-005 9.19e-006 -10.0 5.70e-002    -  1.00e+000 1.00e+000h  1
  33 3.1650187e+000 1.32e-005 2.63e-006 -10.0 3.34e-002    -  1.00e+000 1.00e+000h  1
  34 3.1650187e+000 2.80e-006 5.98e-007 -10.0 1.43e-002    -  1.00e+000 1.00e+000h  1
  35 3.1650187e+000 6.67e-007 4.06e-006 -10.8 6.71e-003    -  1.00e+000 1.00e+000h  1
  36 3.1650187e+000 6.41e-008 7.39e-007 -11.0 1.88e-003    -  1.00e+000 1.00e+000h  1
  37 3.1650187e+000 1.36e-009 1.22e-007 -11.0 1.80e-004    -  1.00e+000 1.00e+000h  1
  38 3.1650187e+000 6.69e-011 1.57e-008 -11.0 5.26e-006    -  1.00e+000 1.00e+000h  1

Number of Iterations....: 38

                                   (scaled)                 (unscaled)
Objective...............:  3.1650187076085556e+000   3.1650187076085556e+000
Dual infeasibility......:  1.5674094559970145e-008   1.5674094559970145e-008
Constraint violation....:  6.6941660548103243e-011   6.6941660548103243e-011
Complementarity.........:  1.0002236392351753e-011   1.0002236392351753e-011
Overall NLP error.......:  1.4077653403499749e-008   1.5674094559970145e-008


Number of objective function evaluations             = 41
Number of objective gradient evaluations             = 39
Number of equality constraint evaluations            = 41
Number of inequality constraint evaluations          = 41
Number of equality constraint Jacobian evaluations   = 39
Number of inequality constraint Jacobian evaluations = 39
Number of Lagrangian Hessian evaluations             = 38
Total CPU secs in IPOPT (w/o function evaluations)   =      2.132
Total CPU secs in NLP function evaluations           =      9.260

EXIT: Optimal Solution Found.
